NAME: random_points
TYPE: TSP
DIMENSION: 45
EDGE_WEIGHT_TYPE: EUC_2D
NODE_COORD_SECTION
1 654 120
2 661 297
3 387 248
4 765 625
5 968 488
6 166 269
7 895 496
8 958 607
9 336 374
10 488 943
11 279 253
12 436 771
13 102 219
14 483 439
15 921 320
16 516 420
17 202 156
18 354 26
19 768 631
20 927 278
21 980 407
22 743 462
23 605 69
24 42 8
25 866 263
26 475 162
27 449 515
28 324 288
29 720 376
30 222 557
31 219 955
32 67 691
33 529 595
34 313 563
35 740 841
36 407 58
37 557 168
38 36 994
39 294 505
40 982 859
41 630 645
42 659 975
43 737 547
44 468 99
45 936 375
EOF
